
%FILE DATA:	Soccer Computational Problem for MiniZinc Models	%
%AUTHOR:	Jack Wall	%
%CONTACT:  	116397063@umail.ucc.ie			%
%LAST UPDATE:	03/03/2020, 16:38:38						%
%DESCRIPTION: 	77 games played with 33 games left				%


n=11; %number of teams

%Games to play
games=[|11,10|1,5|8,3|10,5|1,3|8,5|8,9|5,6|4,8|11,2|8,10|9,5|1,10|5,2|2,3|10,11|3,4|4,9|9,8|11,4|6,5|7,4|6,7|4,2|10,2|1,7|6,8|9,4|6,1|4,7|7,10|8,11|6,3|];

%Initial points
iPoints=[18,17,19,11,12,22,23,18,23,17,33];

%POSITION CONSTRAINTS
% [|teamID, operator, position|...]
% operators index:
%  1 for =  operator
%  2 for >  operator
%  3 for >= operator
%  4 for <  operator
%  5 for <= operator
positionConstraints=[|11,4,2|9,2,1|8,3,3|1,5,4|6,1,5|];